50
0 1 0.34 0.14
0 2 0.32 0.2
0 3 0.43 0.23
0 4 0.44 0.24
0 5 0.25 0.09
0 6 0.64 0.26
0 7 0.68 0.2
0 8 0.56 0.17
0 9 0.46 0.28
0 10 0.52 0.25
0 11 0.76 0.27
0 12 0.44 0.18
0 13 0.77 0.25
0 14 0.48 0.16
0 15 0.53 0.23
0 16 0.69 0.24
0 17 0.69 0.14
0 18 0.48 0.25
0 19 0.43 0.17
0 20 0.68 0.32
0 21 0.55 0.26
0 22 0.62 0.3
0 23 0.62 0.2
0 24 0.52 0.1
0 25 0.77 0.3
0 26 0.66 0.16
0 27 0.47 0.22
0 28 0.54 0.24
0 29 0.56 0.24
0 30 0.33 0.11
0 31 0.69 0.28
0 32 0.71 0.31
0 33 0.72 0.25
0 34 0.66 0.22
0 35 0.66 0.2
0 36 0.28 0.21
0 37 0.74 0.22
0 38 0.38 0.18
0 39 0.54 0.28
0 40 0.52 0.14
0 41 0.39 0.25
0 42 0.79 0.24
0 43 0.52 0.24
0 44 0.5 0.12
0 45 0.71 0.26
0 46 0.66 0.14
0 47 0.62 0.18
0 48 0.7 0.3
0 49 0.56 0.3
1 2 0.4 0.15
1 3 0.67 0.22
1 4 0.75 0.17
1 5 0.51 0.05
1 6 0.46 0.21
1 7 0.68 0.15
1 8 0.56 0.17
1 9 0.6 0.14
1 10 0.64 0.15
1 11 0.48 0.22
1 12 0.52 0.13
1 13 0.82 0.17
1 14 0.37 0.02
1 15 0.46 0.09
1 16 0.61 0.16
1 17 0.5 0.24
1 18 0.62 0.17
1 19 0.61 0.17
1 20 0.5 0.28
1 21 0.71 0.23
1 22 0.51 0.18
1 23 0.65 0.2
1 24 0.45 0.1
1 25 0.5 0.21
1 26 0.48 0.17
1 27 0.63 0.17
1 28 0.74 0.18
1 29 0.58 0.16
1 30 0.25 0.03
1 31 0.49 0.24
1 32 0.71 0.24
1 33 0.75 0.17
1 34 0.74 0.21
1 35 0.68 0.15
1 36 0.48 0.16
1 37 0.52 0.14
1 38 0.72 0.04
1 39 0.67 0.2
1 40 0.58 0.15
1 41 0.31 0.22
1 42 0.57 0.18
1 43 0.42 0.27
1 44 0.68 0.13
1 45 0.67 0.18
1 46 0.65 0.06
1 47 0.32 0.21
1 48 0.62 0.26
1 49 0.62 0.22
2 3 0.52 0.28
2 4 0.4 0.18
2 5 0.37 0.2
2 6 0.52 0.25
2 7 0.59 0.19
2 8 0.5 0.29
2 9 0.66 0.28
2 10 0.76 0.24
2 11 0.88 0.24
2 12 0.51 0.17
2 13 0.67 0.1
2 14 0.72 0.17
2 15 0.43 0.24
2 16 0.72 0.18
2 17 0.65 0.34
2 18 0.48 0.21
2 19 0.71 0.29
2 20 0.58 0.16
2 21 0.4 0.1
2 22 0.71 0.19
2 23 0.52 0.28
2 24 0.64 0.22
2 25 0.76 0.22
2 26 0.5 0.24
2 27 0.59 0.29
2 28 0.54 0.23
2 29 0.75 0.08
2 30 0.63 0.18
2 31 0.55 0.24
2 32 0.78 0.3
2 33 0.62 0.29
2 34 0.64 0.2
2 35 0.66 0.15
2 36 0.54 0.18
2 37 0.79 0.22
2 38 0.52 0.19
2 39 0.31 0.14
2 40 0.5 0.22
2 41 0.71 0.32
2 42 0.79 0.23
2 43 0.67 0.2
2 44 0.7 0.23
2 45 0.68 0.22
2 46 0.72 0.18
2 47 0.54 0.23
2 48 0.69 0.28
2 49 0.6 0.24
3 4 0.53 0.26
3 5 0.56 0.22
3 6 0.62 0.18
3 7 0.58 0.16
3 8 0.54 0.19
3 9 0.54 0.2
3 10 0.51 0.21
3 11 0.55 0.28
3 12 0.77 0.14
3 13 0.81 0.21
3 14 0.71 0.2
3 15 0.42 0.27
3 16 0.71 0.15
3 17 0.48 0.24
3 18 0.62 0.18
3 19 0.63 0.18
3 20 0.76 0.26
3 21 0.42 0.23
3 22 0.62 0.25
3 23 0.82 0.22
3 24 0.72 0.25
3 25 0.47 0.22
3 26 0.34 0.1
3 27 0.46 0.26
3 28 0.5 0.08
3 29 0.62 0.23
3 30 0.74 0.24
3 31 0.75 0.23
3 32 0.76 0.18
3 33 0.52 0.11
3 34 0.66 0.16
3 35 0.68 0.16
3 36 0.42 0.16
3 37 0.52 0.14
3 38 0.34 0.22
3 39 0.51 0.19
3 40 0.67 0.26
3 41 0.55 0.18
3 42 0.52 0.08
3 43 0.78 0.08
3 44 0.62 0.14
3 45 0.37 0.1
3 46 0.39 0.22
3 47 0.4 0.12
3 48 0.52 0.26
3 49 0.57 0.21
4 5 0.44 0.16
4 6 0.78 0.12
4 7 0.36 0.14
4 8 0.56 0.27
4 9 0.61 0.15
4 10 0.59 0.18
4 11 0.62 0.06
4 12 0.66 0.12
4 13 0.73 0.26
4 14 0.5 0.19
4 15 0.47 0.26
4 16 0.64 0.2
4 17 0.54 0.36
4 18 0.62 0.21
4 19 0.7 0.16
4 20 0.56 0.34
4 21 0.56 0.25
4 22 0.6 0.24
4 23 0.45 0.18
4 24 0.62 0.2
4 25 0.54 0.24
4 26 0.56 0.22
4 27 0.59 0.28
4 28 0.76 0.18
4 29 0.36 0.17
4 30 0.6 0.14
4 31 0.7 0.26
4 32 0.77 0.25
4 33 0.4 0.28
4 34 0.24 0.18
4 35 0.26 0.1
4 36 0.72 0.28
4 37 0.59 0.21
4 38 0.71 0.21
4 39 0.66 0.24
4 40 0.45 0.18
4 41 0.64 0.28
4 42 0.62 0.18
4 43 0.68 0.27
4 44 0.5 0.18
4 45 0.66 0.18
4 46 0.46 0.23
4 47 0.44 0.27
4 48 0.5 0.2
4 49 0.6 0.24
5 6 0.52 0.2
5 7 0.49 0.14
5 8 0.66 0.22
5 9 0.4 0.19
5 10 0.55 0.19
5 11 0.7 0.22
5 12 0.53 0.12
5 13 0.68 0.22
5 14 0.73 0.07
5 15 0.28 0.14
5 16 0.56 0.17
5 17 0.62 0.23
5 18 0.57 0.16
5 19 0.58 0.2
5 20 0.43 0.28
5 21 0.64 0.22
5 22 0.52 0.23
5 23 0.66 0.16
5 24 0.72 0.15
5 25 0.68 0.24
5 26 0.66 0.12
5 27 0.22 0.22
5 28 0.79 0.18
5 29 0.52 0.21
5 30 0.26 0.02
5 31 0.71 0.24
5 32 0.46 0.25
5 33 0.58 0.16
5 34 0.56 0.18
5 35 0.62 0.14
5 36 0.53 0.18
5 37 0.74 0.19
5 38 0.49 0.09
5 39 0.68 0.21
5 40 0.56 0.1
5 41 0.64 0.22
5 42 0.72 0.18
5 43 0.74 0.26
5 44 0.67 0.08
5 45 0.46 0.17
5 46 0.75 0.11
5 47 0.78 0.16
5 48 0.5 0.31
5 49 0.61 0.23
6 7 0.63 0.1
6 8 0.54 0.25
6 9 0.53 0.16
6 10 0.38 0.11
6 11 0.56 0.18
6 12 0.56 0.08
6 13 0.7 0.2
6 14 0.64 0.23
6 15 0.53 0.3
6 16 0.64 0.21
6 17 0.76 0.29
6 18 0.36 0.14
6 19 0.46 0.14
6 20 0.58 0.26
6 21 0.66 0.24
6 22 0.55 0.2
6 23 0.5 0.06
6 24 0.37 0.21
6 25 0.72 0.2
6 26 0.46 0.14
6 27 0.59 0.21
6 28 0.62 0.14
6 29 0.75 0.17
6 30 0.52 0.18
6 31 0.56 0.14
6 32 0.7 0.21
6 33 0.7 0.26
6 34 0.78 0.14
6 35 0.65 0.1
6 36 0.68 0.2
6 37 0.45 0.22
6 38 0.58 0.25
6 39 0.42 0.24
6 40 0.69 0.25
6 41 0.51 0.24
6 42 0.73 0.14
6 43 0.78 0.24
6 44 0.5 0.14
6 45 0.25 0.16
6 46 0.32 0.25
6 47 0.4 0.15
6 48 0.61 0.29
6 49 0.74 0.24
7 8 0.65 0.22
7 9 0.47 0.25
7 10 0.74 0.17
7 11 0.67 0.2
7 12 0.57 0.02
7 13 0.52 0.25
7 14 0.46 0.17
7 15 0.46 0.24
7 16 0.71 0.15
7 17 0.8 0.3
7 18 0.5 0.14
7 19 0.5 0.2
7 20 0.4 0.22
7 21 0.54 0.2
7 22 0.78 0.1
7 23 0.39 0.16
7 24 0.76 0.15
7 25 0.56 0.14
7 26 0.48 0.12
7 27 0.68 0.22
7 28 0.58 0.08
7 29 0.66 0.11
7 30 0.74 0.12
7 31 0.67 0.24
7 32 0.83 0.15
7 33 0.31 0.26
7 34 0.6 0.18
7 35 0.56 0.04
7 36 0.59 0.18
7 37 0.46 0.19
7 38 0.7 0.19
7 39 0.54 0.16
7 40 0.63 0.19
7 41 0.56 0.18
7 42 0.53 0.08
7 43 0.68 0.24
7 44 0.6 0.08
7 45 0.74 0.26
7 46 0.59 0.19
7 47 0.56 0.23
7 48 0.34 0.19
7 49 0.55 0.18
8 9 0.58 0.19
8 10 0.52 0.24
8 11 0.72 0.24
8 12 0.24 0.2
8 13 0.57 0.21
8 14 0.52 0.15
8 15 0.38 0.18
8 16 0.38 0.19
8 17 0.52 0.27
8 18 0.64 0.27
8 19 0.6 0.14
8 20 0.51 0.33
8 21 0.57 0.19
8 22 0.67 0.21
8 23 0.72 0.29
8 24 0.43 0.07
8 25 0.6 0.27
8 26 0.62 0.22
8 27 0.78 0.22
8 28 0.42 0.18
8 29 0.67 0.21
8 30 0.51 0.2
8 31 0.68 0.27
8 32 0.44 0.28
8 33 0.34 0.27
8 34 0.76 0.28
8 35 0.57 0.18
8 36 0.3 0.17
8 37 0.47 0.19
8 38 0.79 0.17
8 39 0.74 0.15
8 40 0.73 0.22
8 41 0.26 0.08
8 42 0.52 0.18
8 43 0.74 0.27
8 44 0.51 0.26
8 45 0.36 0.09
8 46 0.6 0.11
8 47 0.64 0.22
8 48 0.57 0.19
8 49 0.65 0.18
9 10 0.6 0.23
9 11 0.73 0.09
9 12 0.58 0.23
9 13 0.68 0.22
9 14 0.61 0.16
9 15 0.54 0.23
9 16 0.6 0.1
9 17 0.45 0.28
9 18 0.47 0.26
9 19 0.63 0.19
9 20 0.55 0.2
9 21 0.46 0.18
9 22 0.44 0.2
9 23 0.52 0.18
9 24 0.48 0.18
9 25 0.41 0.23
9 26 0.61 0.22
9 27 0.62 0.25
9 28 0.48 0.17
9 29 0.58 0.24
9 30 0.59 0.17
9 31 0.62 0.2
9 32 0.74 0.27
9 33 0.58 0.13
9 34 0.69 0.28
9 35 0.62 0.25
9 36 0.73 0.25
9 37 0.41 0.06
9 38 0.52 0.18
9 39 0.64 0.14
9 40 0.16 0.14
9 41 0.68 0.24
9 42 0.54 0.17
9 43 0.68 0.25
9 44 0.57 0.18
9 45 0.74 0.1
9 46 0.39 0.14
9 47 0.62 0.22
9 48 0.42 0.13
9 49 0.71 0.16
10 11 0.59 0.24
10 12 0.76 0.15
10 13 0.65 0.23
10 14 0.74 0.13
10 15 0.34 0.2
10 16 0.62 0.23
10 17 0.6 0.18
10 18 0.64 0.03
10 19 0.75 0.2
10 20 0.74 0.28
10 21 0.73 0.26
10 22 0.74 0.27
10 23 0.42 0.05
10 24 0.75 0.21
10 25 0.52 0.27
10 26 0.42 0.12
10 27 0.72 0.1
10 28 0.67 0.21
10 29 0.43 0.24
10 30 0.52 0.17
10 31 0.71 0.13
10 32 0.7 0.25
10 33 0.58 0.19
10 34 0.74 0.18
10 35 0.33 0.17
10 36 0.74 0.18
10 37 0.48 0.25
10 38 0.58 0.15
10 39 0.72 0.25
10 40 0.46 0.29
10 41 0.57 0.26
10 42 0.5 0.21
10 43 0.71 0.13
10 44 0.55 0.13
10 45 0.2 0.15
10 46 0.52 0.17
10 47 0.62 0.23
10 48 0.64 0.36
10 49 0.44 0.17
11 12 0.62 0.18
11 13 0.62 0.2
11 14 0.69 0.24
11 15 0.58 0.22
11 16 0.34 0.14
11 17 0.62 0.31
11 18 0.5 0.27
11 19 0.33 0.1
11 20 0.82 0.29
11 21 0.76 0.22
11 22 0.63 0.24
11 23 0.46 0.24
11 24 0.58 0.17
11 25 0.4 0.26
11 26 0.66 0.18
11 27 0.67 0.32
11 28 0.73 0.21
11 29 0.7 0.2
11 30 0.5 0.2
11 31 0.62 0.29
11 32 0.42 0.31
11 33 0.51 0.22
11 34 0.7 0.24
11 35 0.72 0.16
11 36 0.63 0.24
11 37 0.62 0.15
11 38 0.57 0.22
11 39 0.73 0.18
11 40 0.57 0.23
11 41 0.46 0.25
11 42 0.69 0.21
11 43 0.62 0.33
11 44 0.67 0.21
11 45 0.58 0.19
11 46 0.57 0.21
11 47 0.78 0.29
11 48 0.51 0.14
11 49 0.76 0.2
12 13 0.33 0.23
12 14 0.42 0.15
12 15 0.62 0.22
12 16 0.62 0.13
12 17 0.64 0.31
12 18 0.4 0.12
12 19 0.46 0.18
12 20 0.58 0.24
12 21 0.69 0.2
12 22 0.67 0.12
12 23 0.57 0.14
12 24 0.19 0.13
12 25 0.66 0.12
12 26 0.67 0.1
12 27 0.75 0.24
12 28 0.66 0.06
12 29 0.66 0.09
12 30 0.27 0.1
12 31 0.44 0.22
12 32 0.46 0.13
12 33 0.58 0.24
12 34 0.73 0.16
12 35 0.65 0.02
12 36 0.54 0.16
12 37 0.58 0.17
12 38 0.59 0.17
12 39 0.56 0.16
12 40 0.49 0.17
12 41 0.5 0.16
12 42 0.47 0.06
12 43 0.71 0.22
12 44 0.46 0.06
12 45 0.6 0.24
12 46 0.52 0.17
12 47 0.51 0.21
12 48 0.71 0.21
12 49 0.72 0.16
13 14 0.48 0.15
13 15 0.75 0.22
13 16 0.56 0.21
13 17 0.57 0.3
13 18 0.34 0.23
13 19 0.46 0.22
13 20 0.65 0.26
13 21 0.82 0.2
13 22 0.73 0.29
13 23 0.82 0.18
13 24 0.52 0.15
13 25 0.36 0.27
13 26 0.55 0.25
13 27 0.46 0.22
13 28 0.48 0.28
13 29 0.63 0.18
13 30 0.6 0.2
13 31 0.6 0.26
13 32 0.79 0.29
13 33 0.53 0.19
13 34 0.56 0.3
13 35 0.53 0.25
13 36 0.55 0.28
13 37 0.44 0.19
13 38 0.66 0.17
13 39 0.36 0.24
13 40 0.52 0.3
13 41 0.69 0.29
13 42 0.68 0.28
13 43 0.47 0.13
13 44 0.79 0.21
13 45 0.56 0.12
13 46 0.5 0.11
13 47 0.69 0.29
13 48 0.38 0.18
13 49 0.68 0.27
14 15 0.64 0.07
14 16 0.58 0.14
14 17 0.7 0.23
14 18 0.7 0.16
14 19 0.54 0.15
14 20 0.44 0.26
14 21 0.6 0.21
14 22 0.51 0.16
14 23 0.58 0.18
14 24 0.61 0.08
14 25 0.29 0.19
14 26 0.55 0.19
14 27 0.53 0.15
14 28 0.49 0.16
14 29 0.54 0.14
14 30 0.62 0.05
14 31 0.63 0.24
14 32 0.68 0.22
14 33 0.47 0.19
14 34 0.54 0.19
14 35 0.64 0.17
14 36 0.64 0.14
14 37 0.42 0.12
14 38 0.66 0.02
14 39 0.58 0.18
14 40 0.46 0.17
14 41 0.55 0.23
14 42 0.6 0.16
14 43 0.29 0.26
14 44 0.68 0.15
14 45 0.62 0.2
14 46 0.32 0.04
14 47 0.62 0.19
14 48 0.3 0.24
14 49 0.3 0.2
15 16 0.7 0.21
15 17 0.34 0.24
15 18 0.61 0.23
15 19 0.41 0.21
15 20 0.49 0.33
15 21 0.7 0.23
15 22 0.51 0.23
15 23 0.73 0.25
15 24 0.68 0.15
15 25 0.7 0.26
15 26 0.66 0.22
15 27 0.5 0.22
15 28 0.7 0.23
15 29 0.32 0.21
15 30 0.54 0.12
15 31 0.75 0.31
15 32 0.74 0.29
15 33 0.39 0.26
15 34 0.61 0.26
15 35 0.42 0.24
15 36 0.68 0.16
15 37 0.51 0.19
15 38 0.66 0.09
15 39 0.74 0.25
15 40 0.38 0.24
15 41 0.64 0.26
15 42 0.61 0.23
15 43 0.71 0.22
15 44 0.68 0.22
15 45 0.28 0.26
15 46 0.54 0.11
15 47 0.62 0.21
15 48 0.42 0.31
15 49 0.74 0.27
16 17 0.6 0.29
16 18 0.82 0.25
16 19 0.56 0.21
16 20 0.62 0.18
16 21 0.65 0.08
16 22 0.29 0.1
16 23 0.44 0.24
16 24 0.65 0.14
16 25 0.74 0.21
16 26 0.63 0.21
16 27 0.5 0.21
16 28 0.65 0.07
16 29 0.48 0.2
16 30 0.36 0.15
16 31 0.65 0.16
16 32 0.36 0.17
16 33 0.71 0.23
16 34 0.68 0.27
16 35 0.38 0.15
16 36 0.68 0.15
16 37 0.3 0.04
16 38 0.76 0.16
16 39 0.69 0.04
16 40 0.44 0.2
16 41 0.32 0.16
16 42 0.66 0.07
16 43 0.56 0.23
16 44 0.65 0.19
16 45 0.7 0.2
16 46 0.32 0.1
16 47 0.53 0.2
16 48 0.58 0.23
16 49 0.42 0.06
17 18 0.58 0.21
17 19 0.68 0.3
17 20 0.74 0.38
17 21 0.54 0.35
17 22 0.67 0.37
17 23 0.51 0.23
17 24 0.77 0.23
17 25 0.82 0.36
17 26 0.73 0.3
17 27 0.49 0.08
17 28 0.63 0.28
17 29 0.58 0.29
17 30 0.58 0.25
17 31 0.76 0.31
17 32 0.74 0.37
17 33 0.54 0.35
17 34 0.6 0.25
17 35 0.48 0.33
17 36 0.7 0.31
17 37 0.57 0.27
17 38 0.52 0.25
17 39 0.52 0.31
17 40 0.61 0.28
17 41 0.46 0.27
17 42 0.54 0.28
17 43 0.61 0.26
17 44 0.72 0.26
17 45 0.58 0.18
17 46 0.44 0.19
17 47 0.54 0.26
17 48 0.5 0.38
17 49 0.4 0.35
18 19 0.73 0.23
18 20 0.68 0.31
18 21 0.7 0.25
18 22 0.75 0.24
18 23 0.68 0.08
18 24 0.48 0.24
18 25 0.7 0.24
18 26 0.6 0.15
18 27 0.36 0.13
18 28 0.26 0.18
18 29 0.75 0.21
18 30 0.66 0.14
18 31 0.76 0.16
18 32 0.7 0.25
18 33 0.62 0.16
18 34 0.72 0.21
18 35 0.76 0.14
18 36 0.51 0.21
18 37 0.73 0.28
18 38 0.72 0.18
18 39 0.61 0.28
18 40 0.56 0.26
18 41 0.5 0.28
18 42 0.4 0.18
18 43 0.66 0.1
18 44 0.66 0.16
18 45 0.61 0.18
18 46 0.6 0.2
18 47 0.48 0.26
18 48 0.52 0.33
18 49 0.42 0.2
19 20 0.75 0.24
19 21 0.57 0.22
19 22 0.47 0.27
19 23 0.44 0.2
19 24 0.57 0.07
19 25 0.6 0.3
19 26 0.34 0.08
19 27 0.59 0.22
19 28 0.47 0.24
19 29 0.52 0.21
19 30 0.73 0.2
19 31 0.62 0.25
19 32 0.64 0.29
19 33 0.75 0.13
19 34 0.66 0.14
19 35 0.51 0.18
19 36 0.3 0.14
19 37 0.37 0.19
19 38 0.63 0.17
19 39 0.4 0.25
19 40 0.58 0.21
19 41 0.58 0.22
19 42 0.7 0.24
19 43 0.74 0.26
19 44 0.56 0.12
19 45 0.63 0.23
19 46 0.24 0.11
19 47 0.52 0.19
19 48 0.68 0.24
19 49 0.7 0.25
20 21 0.72 0.26
20 22 0.6 0.28
20 23 0.45 0.28
20 24 0.77 0.26
20 25 0.42 0.14
20 26 0.42 0.16
20 27 0.6 0.33
20 28 0.42 0.25
20 29 0.66 0.24
20 30 0.58 0.3
20 31 0.64 0.28
20 32 0.89 0.35
20 33 0.71 0.32
20 34 0.5 0.17
20 35 0.76 0.26
20 36 0.45 0.18
20 37 0.72 0.14
20 38 0.73 0.28
20 39 0.7 0.22
20 40 0.71 0.34
20 41 0.42 0.34
20 42 0.64 0.25
20 43 0.66 0.28
20 44 0.24 0.2
20 45 0.74 0.3
20 46 0.59 0.22
20 47 0.72 0.23
20 48 0.73 0.33
20 49 0.47 0.24
21 22 0.6 0.1
21 23 0.68 0.24
21 24 0.68 0.22
21 25 0.8 0.29
21 26 0.76 0.14
21 27 0.6 0.29
21 28 0.44 0.15
21 29 0.49 0.18
21 30 0.46 0.23
21 31 0.77 0.16
21 32 0.64 0.25
21 33 0.42 0.28
21 34 0.66 0.2
21 35 0.59 0.18
21 36 0.27 0.08
21 37 0.72 0.12
21 38 0.32 0.19
21 39 0.71 0.04
21 40 0.32 0.12
21 41 0.51 0.24
21 42 0.54 0.15
21 43 0.58 0.15
21 44 0.6 0.18
21 45 0.65 0.28
21 46 0.81 0.18
21 47 0.61 0.13
21 48 0.56 0.26
21 49 0.56 0.14
22 23 0.56 0.26
22 24 0.48 0.2
22 25 0.76 0.24
22 26 0.67 0.22
22 27 0.62 0.3
22 28 0.57 0.17
22 29 0.38 0.11
22 30 0.52 0.21
22 31 0.54 0.18
22 32 0.51 0.25
22 33 0.58 0.3
22 34 0.72 0.27
22 35 0.48 0.14
22 36 0.5 0.17
22 37 0.36 0.14
22 38 0.59 0.14
22 39 0.4 0.06
22 40 0.28 0.22
22 41 0.61 0.22
22 42 0.54 0.17
22 43 0.46 0.24
22 44 0.66 0.18
22 45 0.69 0.3
22 46 0.23 0.2
22 47 0.61 0.22
22 48 0.72 0.28
22 49 0.34 0.16
23 24 0.38 0.26
23 25 0.71 0.26
23 26 0.5 0.12
23 27 0.74 0.15
23 28 0.58 0.2
23 29 0.74 0.23
23 30 0.54 0.18
23 31 0.29 0.08
23 32 0.63 0.2
23 33 0.66 0.2
23 34 0.69 0.18
23 35 0.65 0.16
23 36 0.74 0.18
23 37 0.56 0.22
23 38 0.78 0.2
23 39 0.48 0.2
23 40 0.36 0.26
23 41 0.64 0.3
23 42 0.47 0.2
23 43 0.65 0.18
23 44 0.21 0.08
23 45 0.45 0.2
23 46 0.49 0.22
23 47 0.58 0.21
23 48 0.5 0.31
23 49 0.8 0.22
24 25 0.76 0.25
24 26 0.8 0.15
24 27 0.66 0.15
24 28 0.72 0.19
24 29 0.56 0.14
24 30 0.46 0.13
24 31 0.4 0.26
24 32 0.65 0.22
24 33 0.56 0.2
24 34 0.54 0.21
24 35 0.46 0.11
24 36 0.6 0.21
24 37 0.46 0.12
24 38 0.4 0.1
24 39 0.64 0.18
24 40 0.64 0.24
24 41 0.69 0.15
24 42 0.66 0.19
24 43 0.7 0.28
24 44 0.56 0.19
24 45 0.62 0.16
24 46 0.33 0.04
24 47 0.32 0.24
24 48 0.64 0.26
24 49 0.7 0.2
25 26 0.26 0.22
25 27 0.81 0.32
25 28 0.65 0.18
25 29 0.64 0.21
25 30 0.66 0.22
25 31 0.58 0.3
25 32 0.54 0.25
25 33 0.64 0.18
25 34 0.3 0.26
25 35 0.6 0.14
25 36 0.53 0.28
25 37 0.68 0.17
25 38 0.5 0.21
25 39 0.72 0.25
25 40 0.57 0.29
25 41 0.62 0.28
25 42 0.62 0.18
25 43 0.58 0.14
25 44 0.5 0.18
25 45 0.48 0.18
25 46 0.61 0.23
25 47 0.74 0.33
25 48 0.59 0.33
25 49 0.42 0.27
26 27 0.63 0.22
26 28 0.56 0.16
26 29 0.44 0.19
26 30 0.4 0.14
26 31 0.48 0.2
26 32 0.55 0.23
26 33 0.58 0.21
26 34 0.32 0.06
26 35 0.34 0.12
26 36 0.64 0.06
26 37 0.65 0.24
26 38 0.58 0.21
26 39 0.68 0.17
26 40 0.45 0.22
26 41 0.43 0.22
26 42 0.36 0.16
26 43 0.82 0.18
26 44 0.66 0.04
26 45 0.62 0.2
26 46 0.52 0.19
26 47 0.74 0.11
26 48 0.6 0.24
26 49 0.36 0.26
27 28 0.62 0.28
27 29 0.74 0.21
27 30 0.48 0.2
27 31 0.64 0.23
27 32 0.51 0.29
27 33 0.66 0.29
27 34 0.78 0.28
27 35 0.68 0.26
27 36 0.75 0.28
27 37 0.8 0.19
27 38 0.67 0.17
27 39 0.72 0.25
27 40 0.78 0.32
27 41 0.52 0.3
27 42 0.59 0.28
27 43 0.58 0.18
27 44 0.66 0.23
27 45 0.68 0.25
27 46 0.76 0.11
27 47 0.56 0.33
27 48 0.48 0.36
27 49 0.72 0.27
28 29 0.67 0.15
28 30 0.7 0.16
28 31 0.56 0.17
28 32 0.6 0.1
28 33 0.71 0.19
28 34 0.74 0.22
28 35 0.57 0.08
28 36 0.6 0.21
28 37 0.55 0.11
28 38 0.56 0.14
28 39 0.35 0.11
28 40 0.64 0.22
28 41 0.61 0.1
28 42 0.49 0.0
28 43 0.71 0.16
28 44 0.4 0.12
28 45 0.72 0.18
28 46 0.58 0.17
28 47 0.58 0.16
28 48 0.5 0.21
28 49 0.23 0.13
29 30 0.63 0.19
29 31 0.62 0.28
29 32 0.42 0.22
29 33 0.71 0.33
29 34 0.34 0.16
29 35 0.1 0.07
29 36 0.64 0.25
29 37 0.63 0.18
29 38 0.55 0.16
29 39 0.58 0.16
29 40 0.42 0.22
29 41 0.5 0.24
29 42 0.72 0.15
29 43 0.74 0.28
29 44 0.76 0.15
29 45 0.5 0.3
29 46 0.5 0.1
29 47 0.66 0.3
29 48 0.52 0.26
29 49 0.44 0.21
30 31 0.6 0.26
30 32 0.56 0.23
30 33 0.5 0.14
30 34 0.52 0.2
30 35 0.69 0.12
30 36 0.49 0.19
30 37 0.61 0.17
30 38 0.71 0.07
30 39 0.48 0.19
30 40 0.5 0.12
30 41 0.56 0.24
30 42 0.46 0.16
30 43 0.64 0.24
30 44 0.73 0.1
30 45 0.42 0.15
30 46 0.56 0.09
30 47 0.57 0.18
30 48 0.65 0.29
30 49 0.56 0.21
31 32 0.62 0.12
31 33 0.65 0.12
31 34 0.8 0.26
31 35 0.52 0.24
31 36 0.58 0.23
31 37 0.35 0.14
31 38 0.71 0.26
31 39 0.24 0.12
31 40 0.46 0.28
31 41 0.5 0.27
31 42 0.54 0.17
31 43 0.36 0.26
31 44 0.5 0.16
31 45 0.66 0.28
31 46 0.48 0.22
31 47 0.5 0.28
31 48 0.33 0.3
31 49 0.52 0.22
32 33 0.52 0.24
32 34 0.76 0.29
32 35 0.52 0.15
32 36 0.48 0.22
32 37 0.53 0.21
32 38 0.78 0.24
32 39 0.6 0.21
32 40 0.68 0.29
32 41 0.55 0.2
32 42 0.3 0.1
32 43 0.39 0.23
32 44 0.83 0.19
32 45 0.68 0.2
32 46 0.4 0.18
32 47 0.77 0.26
32 48 0.58 0.31
32 49 0.67 0.23
33 34 0.5 0.27
33 35 0.66 0.26
33 36 0.57 0.27
33 37 0.77 0.19
33 38 0.72 0.21
33 39 0.45 0.24
33 40 0.56 0.26
33 41 0.52 0.26
33 42 0.22 0.19
33 43 0.58 0.19
33 44 0.85 0.24
33 45 0.67 0.21
33 46 0.74 0.23
33 47 0.7 0.23
33 48 0.45 0.26
33 49 0.52 0.29
34 35 0.44 0.18
34 36 0.78 0.12
34 37 0.66 0.3
34 38 0.72 0.21
34 39 0.68 0.23
34 40 0.53 0.28
34 41 0.75 0.28
34 42 0.59 0.22
34 43 0.76 0.18
34 44 0.74 0.1
34 45 0.78 0.26
34 46 0.66 0.23
34 47 0.57 0.17
34 48 0.5 0.3
34 49 0.66 0.32
35 36 0.54 0.18
35 37 0.68 0.19
35 38 0.45 0.19
35 39 0.55 0.14
35 40 0.46 0.15
35 41 0.4 0.18
35 42 0.7 0.08
35 43 0.64 0.24
35 44 0.76 0.08
35 45 0.4 0.26
35 46 0.6 0.15
35 47 0.7 0.23
35 48 0.54 0.23
35 49 0.34 0.14
36 37 0.59 0.19
36 38 0.52 0.16
36 39 0.46 0.11
36 40 0.59 0.2
36 41 0.41 0.25
36 42 0.51 0.21
36 43 0.44 0.23
36 44 0.64 0.1
36 45 0.54 0.26
36 46 0.54 0.18
36 47 0.34 0.05
36 48 0.66 0.3
36 49 0.72 0.21
37 38 0.54 0.14
37 39 0.57 0.08
37 40 0.57 0.2
37 41 0.42 0.2
37 42 0.65 0.11
37 43 0.63 0.19
37 44 0.5 0.23
37 45 0.43 0.16
37 46 0.13 0.08
37 47 0.25 0.16
37 48 0.56 0.19
37 49 0.53 0.1
38 39 0.83 0.2
38 40 0.51 0.19
38 41 0.69 0.24
38 42 0.59 0.14
38 43 0.72 0.28
38 44 0.88 0.17
38 45 0.61 0.22
38 46 0.67 0.06
38 47 0.6 0.21
38 48 0.38 0.22
38 49 0.73 0.22
39 40 0.64 0.16
39 41 0.74 0.2
39 42 0.67 0.11
39 43 0.36 0.19
39 44 0.69 0.21
39 45 0.52 0.24
39 46 0.48 0.14
39 47 0.74 0.16
39 48 0.57 0.22
39 49 0.32 0.1
40 41 0.56 0.14
40 42 0.38 0.22
40 43 0.68 0.27
40 44 0.52 0.18
40 45 0.58 0.18
40 46 0.51 0.21
40 47 0.78 0.25
40 48 0.58 0.25
40 49 0.62 0.24
41 42 0.54 0.1
41 43 0.73 0.26
41 44 0.64 0.22
41 45 0.57 0.17
41 46 0.47 0.19
41 47 0.63 0.26
41 48 0.31 0.11
41 49 0.66 0.1
42 43 0.69 0.16
42 44 0.68 0.12
42 45 0.61 0.18
42 46 0.52 0.17
42 47 0.53 0.16
42 48 0.3 0.21
42 49 0.66 0.13
43 44 0.64 0.22
43 45 0.8 0.18
43 46 0.61 0.24
43 47 0.38 0.2
43 48 0.59 0.31
43 49 0.59 0.26
44 45 0.66 0.24
44 46 0.63 0.19
44 47 0.48 0.15
44 48 0.71 0.27
44 49 0.63 0.22
45 46 0.46 0.2
45 47 0.42 0.22
45 48 0.51 0.23
45 49 0.64 0.26
46 47 0.38 0.23
46 48 0.62 0.27
46 49 0.57 0.16
47 48 0.32 0.31
47 49 0.62 0.26
48 49 0.46 0.21
